; Options: -in -smt2
(set-option :produce-unsat-assumptions true)

(declare-fun start!2899 () Bool)

(assert start!2899)

(declare-fun b!16048 () Bool)

(declare-fun res!12608 () Bool)

(declare-fun e!8971 () Bool)

(assert (=> b!16048 (=> (not res!12608) (not e!8971))))

(declare-datatypes ((array!1320 0))(
  ( (array!1321 (arr!579 (Array (_ BitVec 32) (_ BitVec 32))) (size!579 (_ BitVec 32))) )
))
(declare-fun iq!146 () array!1320)

(declare-fun iqInv!0 (array!1320) Bool)

(assert (=> b!16048 (= res!12608 (iqInv!0 iq!146))))

(declare-fun b!16049 () Bool)

(declare-fun res!12610 () Bool)

(declare-fun e!8972 () Bool)

(assert (=> b!16049 (=> (not res!12610) (not e!8972))))

(declare-fun lt!8190 () (_ FloatingPoint 11 53))

(assert (=> b!16049 (= res!12610 (and (fp.leq (fp #b0 #b00000000000 #b0000000000000000000000000000000000000000000000000000) lt!8190) (fp.leq lt!8190 (fp #b0 #b10000011001 #b0100000000000000000000010000000000000000000000000000))))))

(declare-fun b!16050 () Bool)

(declare-fun res!12607 () Bool)

(assert (=> b!16050 (=> (not res!12607) (not e!8971))))

(declare-datatypes ((array!1322 0))(
  ( (array!1323 (arr!580 (Array (_ BitVec 32) (_ FloatingPoint 11 53))) (size!580 (_ BitVec 32))) )
))
(declare-fun q!79 () array!1322)

(declare-fun qInv!0 (array!1322) Bool)

(assert (=> b!16050 (= res!12607 (qInv!0 q!79))))

(declare-fun b!16051 () Bool)

(declare-fun res!12604 () Bool)

(assert (=> b!16051 (=> (not res!12604) (not e!8971))))

(declare-fun j!78 () (_ BitVec 32))

(assert (=> b!16051 (= res!12604 (bvsgt j!78 #b00000000000000000000000000000000))))

(declare-fun b!16052 () Bool)

(declare-fun res!12603 () Bool)

(assert (=> b!16052 (=> (not res!12603) (not e!8972))))

(declare-fun P!3 ((_ FloatingPoint 11 53)) Bool)

(assert (=> b!16052 (= res!12603 (P!3 (select (arr!580 q!79) (bvsub j!78 #b00000000000000000000000000000001))))))

(declare-fun b!16053 () Bool)

(declare-fun res!12609 () Bool)

(assert (=> b!16053 (=> (not res!12609) (not e!8971))))

(declare-fun z!100 () (_ FloatingPoint 11 53))

(declare-fun jz!49 () (_ BitVec 32))

(assert (=> b!16053 (= res!12609 (and (bvsle #b00000000000000000000000000000000 j!78) (bvsle j!78 jz!49) (fp.leq (fp #b0 #b00000000000 #b0000000000000000000000000000000000000000000000000000) z!100) (fp.leq z!100 (fp #b0 #b10000110001 #b0100000000000000000000010011111111111111111111111100))))))

(declare-fun b!16054 () Bool)

(declare-fun e!8970 () Bool)

(assert (=> b!16054 (= e!8972 e!8970)))

(declare-fun res!12602 () Bool)

(assert (=> b!16054 (=> (not res!12602) (not e!8970))))

(declare-fun lt!8191 () (_ BitVec 32))

(assert (=> b!16054 (= res!12602 (bvsgt lt!8191 #b00000000000000000000000000000000))))

(assert (=> b!16054 (= lt!8191 (bvsub j!78 #b00000000000000000000000000000001))))

(declare-fun b!16055 () Bool)

(declare-datatypes ((Unit!1626 0))(
  ( (Unit!1627) )
))
(declare-datatypes ((tuple4!426 0))(
  ( (tuple4!427 (_1!407 Unit!1626) (_2!407 array!1320) (_3!344 (_ BitVec 32)) (_4!213 (_ FloatingPoint 11 53))) )
))
(declare-fun computeModuloWhile!0 ((_ BitVec 32) array!1322 array!1320 (_ BitVec 32) (_ FloatingPoint 11 53)) tuple4!426)

(assert (=> b!16055 (= e!8970 (bvsgt (_3!344 (computeModuloWhile!0 jz!49 q!79 (array!1321 (store (arr!579 iq!146) (bvsub jz!49 j!78) (ite (fp.isNaN (fp.sub roundNearestTiesToEven z!100 (fp.mul roundNearestTiesToEven (fp #b0 #b10000010111 #b0000000000000000000000000000000000000000000000000000) lt!8190))) #b00000000000000000000000000000000 (ite (fp.gt (fp.sub roundNearestTiesToEven z!100 (fp.mul roundNearestTiesToEven (fp #b0 #b10000010111 #b0000000000000000000000000000000000000000000000000000) lt!8190)) ((_ to_fp 11 53) roundTowardZero #b01111111111111111111111111111111)) #b01111111111111111111111111111111 (ite (fp.lt (fp.sub roundNearestTiesToEven z!100 (fp.mul roundNearestTiesToEven (fp #b0 #b10000010111 #b0000000000000000000000000000000000000000000000000000) lt!8190)) ((_ to_fp 11 53) roundTowardZero #b10000000000000000000000000000000)) #b10000000000000000000000000000000 ((_ fp.to_sbv 32) roundTowardZero (fp.sub roundNearestTiesToEven z!100 (fp.mul roundNearestTiesToEven (fp #b0 #b10000010111 #b0000000000000000000000000000000000000000000000000000) lt!8190))))))) (size!579 iq!146)) lt!8191 (fp.add roundNearestTiesToEven (select (arr!580 q!79) (bvsub j!78 #b00000000000000000000000000000001)) lt!8190))) #b00000000000000000000000000000000))))

(declare-fun b!16056 () Bool)

(assert (=> b!16056 (= e!8971 e!8972)))

(declare-fun res!12605 () Bool)

(assert (=> b!16056 (=> (not res!12605) (not e!8972))))

(declare-fun QInt!0 ((_ BitVec 32)) Bool)

(assert (=> b!16056 (= res!12605 (QInt!0 (select (store (arr!579 iq!146) (bvsub jz!49 j!78) (ite (fp.isNaN (fp.sub roundNearestTiesToEven z!100 (fp.mul roundNearestTiesToEven (fp #b0 #b10000010111 #b0000000000000000000000000000000000000000000000000000) lt!8190))) #b00000000000000000000000000000000 (ite (fp.gt (fp.sub roundNearestTiesToEven z!100 (fp.mul roundNearestTiesToEven (fp #b0 #b10000010111 #b0000000000000000000000000000000000000000000000000000) lt!8190)) ((_ to_fp 11 53) roundTowardZero #b01111111111111111111111111111111)) #b01111111111111111111111111111111 (ite (fp.lt (fp.sub roundNearestTiesToEven z!100 (fp.mul roundNearestTiesToEven (fp #b0 #b10000010111 #b0000000000000000000000000000000000000000000000000000) lt!8190)) ((_ to_fp 11 53) roundTowardZero #b10000000000000000000000000000000)) #b10000000000000000000000000000000 ((_ fp.to_sbv 32) roundTowardZero (fp.sub roundNearestTiesToEven z!100 (fp.mul roundNearestTiesToEven (fp #b0 #b10000010111 #b0000000000000000000000000000000000000000000000000000) lt!8190))))))) (bvsub jz!49 j!78))))))

(assert (=> b!16056 (= lt!8190 ((_ to_fp 11 53) roundNearestTiesToEven (ite (fp.isNaN (fp.mul roundNearestTiesToEven (fp #b0 #b01111100111 #b0000000000000000000000000000000000000000000000000000) z!100)) #b00000000000000000000000000000000 (ite (fp.gt (fp.mul roundNearestTiesToEven (fp #b0 #b01111100111 #b0000000000000000000000000000000000000000000000000000) z!100) ((_ to_fp 11 53) roundTowardZero #b01111111111111111111111111111111)) #b01111111111111111111111111111111 (ite (fp.lt (fp.mul roundNearestTiesToEven (fp #b0 #b01111100111 #b0000000000000000000000000000000000000000000000000000) z!100) ((_ to_fp 11 53) roundTowardZero #b10000000000000000000000000000000)) #b10000000000000000000000000000000 ((_ fp.to_sbv 32) roundTowardZero (fp.mul roundNearestTiesToEven (fp #b0 #b01111100111 #b0000000000000000000000000000000000000000000000000000) z!100)))))))))

(declare-fun res!12606 () Bool)

(assert (=> start!2899 (=> (not res!12606) (not e!8971))))

(assert (=> start!2899 (= res!12606 (and (bvsle #b00000000000000000000000000000010 jz!49) (bvslt jz!49 #b00000000000000000000000000010011)))))

(assert (=> start!2899 e!8971))

(assert (=> start!2899 true))

(declare-fun array_inv!527 (array!1320) Bool)

(assert (=> start!2899 (array_inv!527 iq!146)))

(declare-fun array_inv!528 (array!1322) Bool)

(assert (=> start!2899 (array_inv!528 q!79)))

(assert (= (and start!2899 res!12606) b!16050))

(assert (= (and b!16050 res!12607) b!16053))

(assert (= (and b!16053 res!12609) b!16048))

(assert (= (and b!16048 res!12608) b!16051))

(assert (= (and b!16051 res!12604) b!16056))

(assert (= (and b!16056 res!12605) b!16049))

(assert (= (and b!16049 res!12610) b!16052))

(assert (= (and b!16052 res!12603) b!16054))

(assert (= (and b!16054 res!12602) b!16055))

(declare-fun m!24053 () Bool)

(assert (=> start!2899 m!24053))

(declare-fun m!24055 () Bool)

(assert (=> start!2899 m!24055))

(declare-fun m!24057 () Bool)

(assert (=> b!16050 m!24057))

(declare-fun m!24059 () Bool)

(assert (=> b!16056 m!24059))

(declare-fun m!24061 () Bool)

(assert (=> b!16056 m!24061))

(assert (=> b!16056 m!24061))

(declare-fun m!24063 () Bool)

(assert (=> b!16056 m!24063))

(declare-fun m!24065 () Bool)

(assert (=> b!16048 m!24065))

(declare-fun m!24067 () Bool)

(assert (=> b!16052 m!24067))

(assert (=> b!16052 m!24067))

(declare-fun m!24069 () Bool)

(assert (=> b!16052 m!24069))

(assert (=> b!16055 m!24059))

(assert (=> b!16055 m!24067))

(declare-fun m!24071 () Bool)

(assert (=> b!16055 m!24071))

(check-sat (not b!16050) (not b!16055) (not b!16056) (not b!16052) (not b!16048) (not start!2899))
(check-sat)
(get-model)

(declare-fun d!6571 () Bool)

(declare-fun res!12613 () Bool)

(declare-fun e!8977 () Bool)

(assert (=> d!6571 (=> (not res!12613) (not e!8977))))

(assert (=> d!6571 (= res!12613 (= (size!579 iq!146) #b00000000000000000000000000010100))))

(assert (=> d!6571 (= (iqInv!0 iq!146) e!8977)))

(declare-fun b!16059 () Bool)

(declare-fun lambda!714 () Int)

(declare-fun all20Int!0 (array!1320 Int) Bool)

(assert (=> b!16059 (= e!8977 (all20Int!0 iq!146 lambda!714))))

(assert (= (and d!6571 res!12613) b!16059))

(declare-fun m!24073 () Bool)

(assert (=> b!16059 m!24073))

(assert (=> b!16048 d!6571))

(declare-fun d!6573 () Bool)

(assert (=> d!6573 (= (P!3 (select (arr!580 q!79) (bvsub j!78 #b00000000000000000000000000000001))) (and (fp.leq (fp #b0 #b00000000000 #b0000000000000000000000000000000000000000000000000000) (select (arr!580 q!79) (bvsub j!78 #b00000000000000000000000000000001))) (fp.leq (select (arr!580 q!79) (bvsub j!78 #b00000000000000000000000000000001)) (fp #b0 #b10000110001 #b0011111111111111111111111111111111111111111111101100))))))

(assert (=> b!16052 d!6573))

(declare-fun d!6575 () Bool)

(assert (=> d!6575 (= (QInt!0 (select (store (arr!579 iq!146) (bvsub jz!49 j!78) (ite (fp.isNaN (fp.sub roundNearestTiesToEven z!100 (fp.mul roundNearestTiesToEven (fp #b0 #b10000010111 #b0000000000000000000000000000000000000000000000000000) lt!8190))) #b00000000000000000000000000000000 (ite (fp.gt (fp.sub roundNearestTiesToEven z!100 (fp.mul roundNearestTiesToEven (fp #b0 #b10000010111 #b0000000000000000000000000000000000000000000000000000) lt!8190)) ((_ to_fp 11 53) roundTowardZero #b01111111111111111111111111111111)) #b01111111111111111111111111111111 (ite (fp.lt (fp.sub roundNearestTiesToEven z!100 (fp.mul roundNearestTiesToEven (fp #b0 #b10000010111 #b0000000000000000000000000000000000000000000000000000) lt!8190)) ((_ to_fp 11 53) roundTowardZero #b10000000000000000000000000000000)) #b10000000000000000000000000000000 ((_ fp.to_sbv 32) roundTowardZero (fp.sub roundNearestTiesToEven z!100 (fp.mul roundNearestTiesToEven (fp #b0 #b10000010111 #b0000000000000000000000000000000000000000000000000000) lt!8190))))))) (bvsub jz!49 j!78))) (and (bvsle #b00000000000000000000000000000000 (select (store (arr!579 iq!146) (bvsub jz!49 j!78) (ite (fp.isNaN (fp.sub roundNearestTiesToEven z!100 (fp.mul roundNearestTiesToEven (fp #b0 #b10000010111 #b0000000000000000000000000000000000000000000000000000) lt!8190))) #b00000000000000000000000000000000 (ite (fp.gt (fp.sub roundNearestTiesToEven z!100 (fp.mul roundNearestTiesToEven (fp #b0 #b10000010111 #b0000000000000000000000000000000000000000000000000000) lt!8190)) ((_ to_fp 11 53) roundTowardZero #b01111111111111111111111111111111)) #b01111111111111111111111111111111 (ite (fp.lt (fp.sub roundNearestTiesToEven z!100 (fp.mul roundNearestTiesToEven (fp #b0 #b10000010111 #b0000000000000000000000000000000000000000000000000000) lt!8190)) ((_ to_fp 11 53) roundTowardZero #b10000000000000000000000000000000)) #b10000000000000000000000000000000 ((_ fp.to_sbv 32) roundTowardZero (fp.sub roundNearestTiesToEven z!100 (fp.mul roundNearestTiesToEven (fp #b0 #b10000010111 #b0000000000000000000000000000000000000000000000000000) lt!8190))))))) (bvsub jz!49 j!78))) (bvsle (select (store (arr!579 iq!146) (bvsub jz!49 j!78) (ite (fp.isNaN (fp.sub roundNearestTiesToEven z!100 (fp.mul roundNearestTiesToEven (fp #b0 #b10000010111 #b0000000000000000000000000000000000000000000000000000) lt!8190))) #b00000000000000000000000000000000 (ite (fp.gt (fp.sub roundNearestTiesToEven z!100 (fp.mul roundNearestTiesToEven (fp #b0 #b10000010111 #b0000000000000000000000000000000000000000000000000000) lt!8190)) ((_ to_fp 11 53) roundTowardZero #b01111111111111111111111111111111)) #b01111111111111111111111111111111 (ite (fp.lt (fp.sub roundNearestTiesToEven z!100 (fp.mul roundNearestTiesToEven (fp #b0 #b10000010111 #b0000000000000000000000000000000000000000000000000000) lt!8190)) ((_ to_fp 11 53) roundTowardZero #b10000000000000000000000000000000)) #b10000000000000000000000000000000 ((_ fp.to_sbv 32) roundTowardZero (fp.sub roundNearestTiesToEven z!100 (fp.mul roundNearestTiesToEven (fp #b0 #b10000010111 #b0000000000000000000000000000000000000000000000000000) lt!8190))))))) (bvsub jz!49 j!78)) #b00000000111111111111111111111111)))))

(assert (=> b!16056 d!6575))

(declare-fun d!6577 () Bool)

(assert (=> d!6577 (= (array_inv!527 iq!146) (bvsge (size!579 iq!146) #b00000000000000000000000000000000))))

(assert (=> start!2899 d!6577))

(declare-fun d!6579 () Bool)

(assert (=> d!6579 (= (array_inv!528 q!79) (bvsge (size!580 q!79) #b00000000000000000000000000000000))))

(assert (=> start!2899 d!6579))

(declare-fun d!6581 () Bool)

(declare-fun res!12616 () Bool)

(declare-fun e!8980 () Bool)

(assert (=> d!6581 (=> (not res!12616) (not e!8980))))

(assert (=> d!6581 (= res!12616 (= (size!580 q!79) #b00000000000000000000000000010100))))

(assert (=> d!6581 (= (qInv!0 q!79) e!8980)))

(declare-fun b!16062 () Bool)

(declare-fun lambda!717 () Int)

(declare-fun all20!0 (array!1322 Int) Bool)

(assert (=> b!16062 (= e!8980 (all20!0 q!79 lambda!717))))

(assert (= (and d!6581 res!12616) b!16062))

(declare-fun m!24075 () Bool)

(assert (=> b!16062 m!24075))

(assert (=> b!16050 d!6581))

(declare-fun b!16075 () Bool)

(declare-fun e!8989 () Bool)

(declare-fun lt!8205 () tuple4!426)

(assert (=> b!16075 (= e!8989 (bvsle (_3!344 lt!8205) #b00000000000000000000000000000000))))

(declare-fun b!16076 () Bool)

(declare-fun res!12625 () Bool)

(declare-fun e!8987 () Bool)

(assert (=> b!16076 (=> (not res!12625) (not e!8987))))

(assert (=> b!16076 (= res!12625 (iqInv!0 (array!1321 (store (arr!579 iq!146) (bvsub jz!49 j!78) (ite (fp.isNaN (fp.sub roundNearestTiesToEven z!100 (fp.mul roundNearestTiesToEven (fp #b0 #b10000010111 #b0000000000000000000000000000000000000000000000000000) lt!8190))) #b00000000000000000000000000000000 (ite (fp.gt (fp.sub roundNearestTiesToEven z!100 (fp.mul roundNearestTiesToEven (fp #b0 #b10000010111 #b0000000000000000000000000000000000000000000000000000) lt!8190)) ((_ to_fp 11 53) roundTowardZero #b01111111111111111111111111111111)) #b01111111111111111111111111111111 (ite (fp.lt (fp.sub roundNearestTiesToEven z!100 (fp.mul roundNearestTiesToEven (fp #b0 #b10000010111 #b0000000000000000000000000000000000000000000000000000) lt!8190)) ((_ to_fp 11 53) roundTowardZero #b10000000000000000000000000000000)) #b10000000000000000000000000000000 ((_ fp.to_sbv 32) roundTowardZero (fp.sub roundNearestTiesToEven z!100 (fp.mul roundNearestTiesToEven (fp #b0 #b10000010111 #b0000000000000000000000000000000000000000000000000000) lt!8190))))))) (size!579 iq!146))))))

(declare-fun lt!8202 () (_ BitVec 32))

(declare-fun lt!8206 () array!1320)

(declare-fun e!8988 () tuple4!426)

(declare-fun lt!8204 () (_ FloatingPoint 11 53))

(declare-fun b!16077 () Bool)

(declare-fun Unit!1628 () Unit!1626)

(assert (=> b!16077 (= e!8988 (tuple4!427 Unit!1628 lt!8206 lt!8202 lt!8204))))

(declare-fun b!16078 () Bool)

(assert (=> b!16078 (= e!8988 (computeModuloWhile!0 jz!49 q!79 lt!8206 lt!8202 lt!8204))))

(declare-fun d!6583 () Bool)

(assert (=> d!6583 e!8989))

(declare-fun res!12627 () Bool)

(assert (=> d!6583 (=> (not res!12627) (not e!8989))))

(assert (=> d!6583 (= res!12627 (and true true (bvsle #b00000000000000000000000000000000 (_3!344 lt!8205)) (bvsle (_3!344 lt!8205) jz!49) (fp.leq (fp #b0 #b00000000000 #b0000000000000000000000000000000000000000000000000000) (_4!213 lt!8205)) (fp.leq (_4!213 lt!8205) (fp #b0 #b10000110001 #b0100000000000000000000010011111111111111111111111100))))))

(assert (=> d!6583 (= lt!8205 e!8988)))

(declare-fun c!1936 () Bool)

(assert (=> d!6583 (= c!1936 (bvsgt lt!8202 #b00000000000000000000000000000000))))

(assert (=> d!6583 (= lt!8202 (bvsub lt!8191 #b00000000000000000000000000000001))))

(declare-fun lt!8203 () (_ FloatingPoint 11 53))

(assert (=> d!6583 (= lt!8204 (fp.add roundNearestTiesToEven (select (arr!580 q!79) (bvsub lt!8191 #b00000000000000000000000000000001)) lt!8203))))

(assert (=> d!6583 (= lt!8206 (array!1321 (store (arr!579 (array!1321 (store (arr!579 iq!146) (bvsub jz!49 j!78) (ite (fp.isNaN (fp.sub roundNearestTiesToEven z!100 (fp.mul roundNearestTiesToEven (fp #b0 #b10000010111 #b0000000000000000000000000000000000000000000000000000) lt!8190))) #b00000000000000000000000000000000 (ite (fp.gt (fp.sub roundNearestTiesToEven z!100 (fp.mul roundNearestTiesToEven (fp #b0 #b10000010111 #b0000000000000000000000000000000000000000000000000000) lt!8190)) ((_ to_fp 11 53) roundTowardZero #b01111111111111111111111111111111)) #b01111111111111111111111111111111 (ite (fp.lt (fp.sub roundNearestTiesToEven z!100 (fp.mul roundNearestTiesToEven (fp #b0 #b10000010111 #b0000000000000000000000000000000000000000000000000000) lt!8190)) ((_ to_fp 11 53) roundTowardZero #b10000000000000000000000000000000)) #b10000000000000000000000000000000 ((_ fp.to_sbv 32) roundTowardZero (fp.sub roundNearestTiesToEven z!100 (fp.mul roundNearestTiesToEven (fp #b0 #b10000010111 #b0000000000000000000000000000000000000000000000000000) lt!8190))))))) (size!579 iq!146))) (bvsub jz!49 lt!8191) (ite (fp.isNaN (fp.sub roundNearestTiesToEven (fp.add roundNearestTiesToEven (select (arr!580 q!79) (bvsub j!78 #b00000000000000000000000000000001)) lt!8190) (fp.mul roundNearestTiesToEven (fp #b0 #b10000010111 #b0000000000000000000000000000000000000000000000000000) lt!8203))) #b00000000000000000000000000000000 (ite (fp.gt (fp.sub roundNearestTiesToEven (fp.add roundNearestTiesToEven (select (arr!580 q!79) (bvsub j!78 #b00000000000000000000000000000001)) lt!8190) (fp.mul roundNearestTiesToEven (fp #b0 #b10000010111 #b0000000000000000000000000000000000000000000000000000) lt!8203)) ((_ to_fp 11 53) roundTowardZero #b01111111111111111111111111111111)) #b01111111111111111111111111111111 (ite (fp.lt (fp.sub roundNearestTiesToEven (fp.add roundNearestTiesToEven (select (arr!580 q!79) (bvsub j!78 #b00000000000000000000000000000001)) lt!8190) (fp.mul roundNearestTiesToEven (fp #b0 #b10000010111 #b0000000000000000000000000000000000000000000000000000) lt!8203)) ((_ to_fp 11 53) roundTowardZero #b10000000000000000000000000000000)) #b10000000000000000000000000000000 ((_ fp.to_sbv 32) roundTowardZero (fp.sub roundNearestTiesToEven (fp.add roundNearestTiesToEven (select (arr!580 q!79) (bvsub j!78 #b00000000000000000000000000000001)) lt!8190) (fp.mul roundNearestTiesToEven (fp #b0 #b10000010111 #b0000000000000000000000000000000000000000000000000000) lt!8203))))))) (size!579 (array!1321 (store (arr!579 iq!146) (bvsub jz!49 j!78) (ite (fp.isNaN (fp.sub roundNearestTiesToEven z!100 (fp.mul roundNearestTiesToEven (fp #b0 #b10000010111 #b0000000000000000000000000000000000000000000000000000) lt!8190))) #b00000000000000000000000000000000 (ite (fp.gt (fp.sub roundNearestTiesToEven z!100 (fp.mul roundNearestTiesToEven (fp #b0 #b10000010111 #b0000000000000000000000000000000000000000000000000000) lt!8190)) ((_ to_fp 11 53) roundTowardZero #b01111111111111111111111111111111)) #b01111111111111111111111111111111 (ite (fp.lt (fp.sub roundNearestTiesToEven z!100 (fp.mul roundNearestTiesToEven (fp #b0 #b10000010111 #b0000000000000000000000000000000000000000000000000000) lt!8190)) ((_ to_fp 11 53) roundTowardZero #b10000000000000000000000000000000)) #b10000000000000000000000000000000 ((_ fp.to_sbv 32) roundTowardZero (fp.sub roundNearestTiesToEven z!100 (fp.mul roundNearestTiesToEven (fp #b0 #b10000010111 #b0000000000000000000000000000000000000000000000000000) lt!8190))))))) (size!579 iq!146)))))))

(assert (=> d!6583 (= lt!8203 ((_ to_fp 11 53) roundNearestTiesToEven (ite (fp.isNaN (fp.mul roundNearestTiesToEven (fp #b0 #b01111100111 #b0000000000000000000000000000000000000000000000000000) (fp.add roundNearestTiesToEven (select (arr!580 q!79) (bvsub j!78 #b00000000000000000000000000000001)) lt!8190))) #b00000000000000000000000000000000 (ite (fp.gt (fp.mul roundNearestTiesToEven (fp #b0 #b01111100111 #b0000000000000000000000000000000000000000000000000000) (fp.add roundNearestTiesToEven (select (arr!580 q!79) (bvsub j!78 #b00000000000000000000000000000001)) lt!8190)) ((_ to_fp 11 53) roundTowardZero #b01111111111111111111111111111111)) #b01111111111111111111111111111111 (ite (fp.lt (fp.mul roundNearestTiesToEven (fp #b0 #b01111100111 #b0000000000000000000000000000000000000000000000000000) (fp.add roundNearestTiesToEven (select (arr!580 q!79) (bvsub j!78 #b00000000000000000000000000000001)) lt!8190)) ((_ to_fp 11 53) roundTowardZero #b10000000000000000000000000000000)) #b10000000000000000000000000000000 ((_ fp.to_sbv 32) roundTowardZero (fp.mul roundNearestTiesToEven (fp #b0 #b01111100111 #b0000000000000000000000000000000000000000000000000000) (fp.add roundNearestTiesToEven (select (arr!580 q!79) (bvsub j!78 #b00000000000000000000000000000001)) lt!8190))))))))))

(assert (=> d!6583 e!8987))

(declare-fun res!12628 () Bool)

(assert (=> d!6583 (=> (not res!12628) (not e!8987))))

(assert (=> d!6583 (= res!12628 (and (bvsle #b00000000000000000000000000000000 lt!8191) (bvsle lt!8191 jz!49) (fp.leq (fp #b0 #b00000000000 #b0000000000000000000000000000000000000000000000000000) (fp.add roundNearestTiesToEven (select (arr!580 q!79) (bvsub j!78 #b00000000000000000000000000000001)) lt!8190)) (fp.leq (fp.add roundNearestTiesToEven (select (arr!580 q!79) (bvsub j!78 #b00000000000000000000000000000001)) lt!8190) (fp #b0 #b10000110001 #b0100000000000000000000010011111111111111111111111100))))))

(assert (=> d!6583 (= (computeModuloWhile!0 jz!49 q!79 (array!1321 (store (arr!579 iq!146) (bvsub jz!49 j!78) (ite (fp.isNaN (fp.sub roundNearestTiesToEven z!100 (fp.mul roundNearestTiesToEven (fp #b0 #b10000010111 #b0000000000000000000000000000000000000000000000000000) lt!8190))) #b00000000000000000000000000000000 (ite (fp.gt (fp.sub roundNearestTiesToEven z!100 (fp.mul roundNearestTiesToEven (fp #b0 #b10000010111 #b0000000000000000000000000000000000000000000000000000) lt!8190)) ((_ to_fp 11 53) roundTowardZero #b01111111111111111111111111111111)) #b01111111111111111111111111111111 (ite (fp.lt (fp.sub roundNearestTiesToEven z!100 (fp.mul roundNearestTiesToEven (fp #b0 #b10000010111 #b0000000000000000000000000000000000000000000000000000) lt!8190)) ((_ to_fp 11 53) roundTowardZero #b10000000000000000000000000000000)) #b10000000000000000000000000000000 ((_ fp.to_sbv 32) roundTowardZero (fp.sub roundNearestTiesToEven z!100 (fp.mul roundNearestTiesToEven (fp #b0 #b10000010111 #b0000000000000000000000000000000000000000000000000000) lt!8190))))))) (size!579 iq!146)) lt!8191 (fp.add roundNearestTiesToEven (select (arr!580 q!79) (bvsub j!78 #b00000000000000000000000000000001)) lt!8190)) lt!8205)))

(declare-fun b!16079 () Bool)

(declare-fun res!12626 () Bool)

(assert (=> b!16079 (=> (not res!12626) (not e!8989))))

(assert (=> b!16079 (= res!12626 (iqInv!0 (_2!407 lt!8205)))))

(declare-fun b!16080 () Bool)

(assert (=> b!16080 (= e!8987 (bvsgt lt!8191 #b00000000000000000000000000000000))))

(assert (= (and d!6583 res!12628) b!16076))

(assert (= (and b!16076 res!12625) b!16080))

(assert (= (and d!6583 c!1936) b!16078))

(assert (= (and d!6583 (not c!1936)) b!16077))

(assert (= (and d!6583 res!12627) b!16079))

(assert (= (and b!16079 res!12626) b!16075))

(declare-fun m!24077 () Bool)

(assert (=> b!16076 m!24077))

(declare-fun m!24079 () Bool)

(assert (=> b!16078 m!24079))

(declare-fun m!24081 () Bool)

(assert (=> d!6583 m!24081))

(declare-fun m!24083 () Bool)

(assert (=> d!6583 m!24083))

(declare-fun m!24085 () Bool)

(assert (=> b!16079 m!24085))

(assert (=> b!16055 d!6583))

(check-sat (not b!16078) (not b!16062) (not b!16076) (not b!16059) (not b!16079))
(check-sat)
